c *********************************
c * Circuit generated by BenCGen
c *
c * Parity_89
c *
c * Ports with 1 gate(s): 1
c * Ports with 2 gate(s): 89
c * Total gates: 90
c *********************************
p cnf 179 357
1 92 0
-1 -92 0
1 -91 0
92 -91 0
-1 -92 91 0
1 2 -93 0
-1 2 93 0
1 -2 93 0
-1 -2 -93 0
3 4 -94 0
-3 4 94 0
3 -4 94 0
-3 -4 -94 0
5 6 -95 0
-5 6 95 0
5 -6 95 0
-5 -6 -95 0
7 8 -96 0
-7 8 96 0
7 -8 96 0
-7 -8 -96 0
9 10 -97 0
-9 10 97 0
9 -10 97 0
-9 -10 -97 0
11 12 -98 0
-11 12 98 0
11 -12 98 0
-11 -12 -98 0
13 14 -99 0
-13 14 99 0
13 -14 99 0
-13 -14 -99 0
15 16 -100 0
-15 16 100 0
15 -16 100 0
-15 -16 -100 0
17 18 -101 0
-17 18 101 0
17 -18 101 0
-17 -18 -101 0
19 20 -102 0
-19 20 102 0
19 -20 102 0
-19 -20 -102 0
21 22 -103 0
-21 22 103 0
21 -22 103 0
-21 -22 -103 0
23 24 -104 0
-23 24 104 0
23 -24 104 0
-23 -24 -104 0
25 26 -105 0
-25 26 105 0
25 -26 105 0
-25 -26 -105 0
27 28 -106 0
-27 28 106 0
27 -28 106 0
-27 -28 -106 0
29 30 -107 0
-29 30 107 0
29 -30 107 0
-29 -30 -107 0
31 32 -108 0
-31 32 108 0
31 -32 108 0
-31 -32 -108 0
33 34 -109 0
-33 34 109 0
33 -34 109 0
-33 -34 -109 0
35 36 -110 0
-35 36 110 0
35 -36 110 0
-35 -36 -110 0
37 38 -111 0
-37 38 111 0
37 -38 111 0
-37 -38 -111 0
39 40 -112 0
-39 40 112 0
39 -40 112 0
-39 -40 -112 0
41 42 -113 0
-41 42 113 0
41 -42 113 0
-41 -42 -113 0
43 44 -114 0
-43 44 114 0
43 -44 114 0
-43 -44 -114 0
45 46 -115 0
-45 46 115 0
45 -46 115 0
-45 -46 -115 0
47 48 -116 0
-47 48 116 0
47 -48 116 0
-47 -48 -116 0
49 50 -117 0
-49 50 117 0
49 -50 117 0
-49 -50 -117 0
51 52 -118 0
-51 52 118 0
51 -52 118 0
-51 -52 -118 0
53 54 -119 0
-53 54 119 0
53 -54 119 0
-53 -54 -119 0
55 56 -120 0
-55 56 120 0
55 -56 120 0
-55 -56 -120 0
57 58 -121 0
-57 58 121 0
57 -58 121 0
-57 -58 -121 0
59 60 -122 0
-59 60 122 0
59 -60 122 0
-59 -60 -122 0
61 62 -123 0
-61 62 123 0
61 -62 123 0
-61 -62 -123 0
63 64 -124 0
-63 64 124 0
63 -64 124 0
-63 -64 -124 0
65 66 -125 0
-65 66 125 0
65 -66 125 0
-65 -66 -125 0
67 68 -126 0
-67 68 126 0
67 -68 126 0
-67 -68 -126 0
69 70 -127 0
-69 70 127 0
69 -70 127 0
-69 -70 -127 0
71 72 -128 0
-71 72 128 0
71 -72 128 0
-71 -72 -128 0
73 74 -129 0
-73 74 129 0
73 -74 129 0
-73 -74 -129 0
75 76 -130 0
-75 76 130 0
75 -76 130 0
-75 -76 -130 0
77 78 -131 0
-77 78 131 0
77 -78 131 0
-77 -78 -131 0
79 80 -132 0
-79 80 132 0
79 -80 132 0
-79 -80 -132 0
81 82 -133 0
-81 82 133 0
81 -82 133 0
-81 -82 -133 0
83 84 -134 0
-83 84 134 0
83 -84 134 0
-83 -84 -134 0
85 86 -135 0
-85 86 135 0
85 -86 135 0
-85 -86 -135 0
87 88 -136 0
-87 88 136 0
87 -88 136 0
-87 -88 -136 0
93 94 -137 0
-93 94 137 0
93 -94 137 0
-93 -94 -137 0
95 96 -138 0
-95 96 138 0
95 -96 138 0
-95 -96 -138 0
97 98 -139 0
-97 98 139 0
97 -98 139 0
-97 -98 -139 0
99 100 -140 0
-99 100 140 0
99 -100 140 0
-99 -100 -140 0
101 102 -141 0
-101 102 141 0
101 -102 141 0
-101 -102 -141 0
103 104 -142 0
-103 104 142 0
103 -104 142 0
-103 -104 -142 0
105 106 -143 0
-105 106 143 0
105 -106 143 0
-105 -106 -143 0
107 108 -144 0
-107 108 144 0
107 -108 144 0
-107 -108 -144 0
109 110 -145 0
-109 110 145 0
109 -110 145 0
-109 -110 -145 0
111 112 -146 0
-111 112 146 0
111 -112 146 0
-111 -112 -146 0
113 114 -147 0
-113 114 147 0
113 -114 147 0
-113 -114 -147 0
115 116 -148 0
-115 116 148 0
115 -116 148 0
-115 -116 -148 0
117 118 -149 0
-117 118 149 0
117 -118 149 0
-117 -118 -149 0
119 120 -150 0
-119 120 150 0
119 -120 150 0
-119 -120 -150 0
121 122 -151 0
-121 122 151 0
121 -122 151 0
-121 -122 -151 0
123 124 -152 0
-123 124 152 0
123 -124 152 0
-123 -124 -152 0
125 126 -153 0
-125 126 153 0
125 -126 153 0
-125 -126 -153 0
127 128 -154 0
-127 128 154 0
127 -128 154 0
-127 -128 -154 0
129 130 -155 0
-129 130 155 0
129 -130 155 0
-129 -130 -155 0
131 132 -156 0
-131 132 156 0
131 -132 156 0
-131 -132 -156 0
133 134 -157 0
-133 134 157 0
133 -134 157 0
-133 -134 -157 0
135 136 -158 0
-135 136 158 0
135 -136 158 0
-135 -136 -158 0
137 138 -159 0
-137 138 159 0
137 -138 159 0
-137 -138 -159 0
139 140 -160 0
-139 140 160 0
139 -140 160 0
-139 -140 -160 0
141 142 -161 0
-141 142 161 0
141 -142 161 0
-141 -142 -161 0
143 144 -162 0
-143 144 162 0
143 -144 162 0
-143 -144 -162 0
145 146 -163 0
-145 146 163 0
145 -146 163 0
-145 -146 -163 0
147 148 -164 0
-147 148 164 0
147 -148 164 0
-147 -148 -164 0
149 150 -165 0
-149 150 165 0
149 -150 165 0
-149 -150 -165 0
151 152 -166 0
-151 152 166 0
151 -152 166 0
-151 -152 -166 0
153 154 -167 0
-153 154 167 0
153 -154 167 0
-153 -154 -167 0
155 156 -168 0
-155 156 168 0
155 -156 168 0
-155 -156 -168 0
157 158 -169 0
-157 158 169 0
157 -158 169 0
-157 -158 -169 0
159 160 -170 0
-159 160 170 0
159 -160 170 0
-159 -160 -170 0
161 162 -171 0
-161 162 171 0
161 -162 171 0
-161 -162 -171 0
163 164 -172 0
-163 164 172 0
163 -164 172 0
-163 -164 -172 0
165 166 -173 0
-165 166 173 0
165 -166 173 0
-165 -166 -173 0
167 168 -174 0
-167 168 174 0
167 -168 174 0
-167 -168 -174 0
169 89 -175 0
-169 89 175 0
169 -89 175 0
-169 -89 -175 0
170 171 -176 0
-170 171 176 0
170 -171 176 0
-170 -171 -176 0
172 173 -177 0
-172 173 177 0
172 -173 177 0
-172 -173 -177 0
174 175 -178 0
-174 175 178 0
174 -175 178 0
-174 -175 -178 0
176 177 -179 0
-176 177 179 0
176 -177 179 0
-176 -177 -179 0
179 178 -90 0
-179 178 90 0
179 -178 90 0
-179 -178 -90 0
